column=12;
row=12;
Board=[|11,0,0,0,0,0,0,0,4,7,10,1|0,0,0,0,0,10,0,0,0,0,6,0|5,0,0,0,9,2,1,0,7,0,4,0|8,0,7,5,0,4,9,0,0,6,2,0|0,0,0,0,0,0,0,0,0,0,0,8|0,6,0,3,0,0,7,2,0,0,1,0|0,0,0,0,0,0,0,7,0,8,12,0|0,8,0,0,5,0,0,0,12,0,0,0|7,0,0,11,0,0,0,6,9,0,0,0|0,10,0,7,11,0,5,0,1,0,0,0|0,0,8,0,0,0,0,0,2,12,0,0|0,0,0,0,7,8,12,11,0,0,0,0|];
horizontal=[|0,0,0,0,0,0,0,1,0,0,0|0,0,1,0,0,0,1,0,0,0,0|0,0,0,1,0,1,0,0,0,1,0|0,0,0,0,0,0,1,0,0,0,0|1,1,0,0,0,0,0,0,0,0,1|0,0,0,0,0,0,0,0,1,0,0|1,1,0,0,0,1,0,0,0,0,0|0,0,0,0,0,0,0,0,0,0,0|0,0,0,1,0,0,0,0,0,0,0|0,1,0,0,1,0,0,0,1,1,0|1,1,0,0,0,0,0,1,0,0,0|0,0,0,0,1,0,1,0,1,0,0|];
vertical=[|0,0,0,0,1,0,0,0,0,0,0,0|0,0,0,0,0,0,0,0,1,0,0,0|0,0,1,0,0,0,0,0,0,0,0,1|0,1,0,0,0,0,0,1,0,0,0,0|0,0,0,0,0,0,1,0,0,1,0,0|0,0,0,0,0,0,0,0,1,1,0,1|0,0,1,0,0,0,0,0,1,0,1,0|1,0,0,1,0,0,1,0,0,0,0,0|0,0,0,0,1,0,0,0,0,0,0,0|0,1,1,0,0,0,0,0,1,0,0,1|0,0,0,0,1,0,1,0,0,0,0,0|];
